NAME : kroA100-C-5-1-a__wo_all_bias_same_priority_ls20__24164.tour
COMMENT : Length = 24164.000
COMMENT : Generated by evaluate_ctspd.py for wo_all_bias_same_priority_ls20
TYPE : TOUR
DIMENSION : 100
TOUR_SECTION
20
12
27
86
35
62
60
77
23
98
45
91
1
92
97
4
65
66
26
56
80
31
89
42
8
75
19
90
79
53
88
16
70
22
94
18
24
38
99
36
21
74
59
17
15
11
32
47
72
84
10
49
6
63
93
28
67
58
61
51
25
81
85
68
50
73
69
64
40
54
2
44
82
95
13
76
33
37
5
52
78
96
39
30
48
14
100
71
41
3
43
46
29
34
83
55
7
9
87
57
-1
EOF
